<?xml version = "1.0" encoding="UTF-8" standalone="yes"?>
<CPLEXSolution version="1.2">
 <header
   problemName="IloCplex"
   solutionName="p0"
   solutionIndex="-1"
   objectiveValue="0"
   solutionTypeValue="3"
   solutionTypeString="primal"
   solutionStatusValue="127"
   solutionStatusString="integer feasible solution"
   solutionMethodString="mip"
   primalFeasible="0"
   dualFeasible="0"
   writeLevel="3"/>
 <quality
   epInt="1.0000000000000001e-05"
   epRHS="9.9999999999999995e-07"
   maxIntInfeas="0"
   maxPrimalInfeas="0"
   maxX="544"
   maxSlack="1384"/>
 <variables>
  <variable index="62" value="1"/>
  <variable index="166" value="1"/>
  <variable index="346" value="1"/>
  <variable index="614" value="1"/>
  <variable index="714" value="1"/>
  <variable index="829" value="1"/>
  <variable index="923" value="1"/>
  <variable index="1075" value="1"/>
  <variable index="1221" value="1"/>
  <variable index="1465" value="1"/>
  <variable index="1600" value="1"/>
  <variable index="1708" value="1"/>
  <variable index="1824" value="1"/>
  <variable index="2054" value="1"/>
  <variable index="2127" value="1"/>
  <variable index="2297" value="1"/>
  <variable index="2495" value="1"/>
  <variable index="2642" value="1"/>
  <variable index="2718" value="1"/>
  <variable index="2884" value="1"/>
  <variable index="3035" value="1"/>
  <variable index="3172" value="1"/>
  <variable index="3317" value="1"/>
  <variable index="3501" value="1"/>
  <variable index="3653" value="1"/>
  <variable index="3787" value="1"/>
  <variable index="3938" value="1"/>
  <variable index="4095" value="1"/>
  <variable index="4349" value="1"/>
  <variable index="4392" value="1"/>
  <variable index="4539" value="1"/>
  <variable index="4772" value="1"/>
  <variable index="4876" value="1"/>
  <variable index="5017" value="1"/>
  <variable index="5120" value="1"/>
  <variable index="5331" value="1"/>
  <variable index="5465" value="1"/>
  <variable index="5581" value="1"/>
  <variable index="5736" value="1"/>
  <variable index="5906" value="1"/>
  <variable index="6071" value="1"/>
  <variable index="6233" value="1"/>
  <variable index="6373" value="1"/>
  <variable index="6505" value="1"/>
  <variable index="6675" value="1"/>
  <variable index="6827" value="1"/>
  <variable index="6948" value="1"/>
  <variable index="7157" value="1"/>
  <variable index="7310" value="1"/>
  <variable index="7413" value="1"/>
  <variable index="7564" value="1"/>
  <variable index="7746" value="1"/>
  <variable index="7869" value="1"/>
  <variable index="8004" value="1"/>
  <variable index="8168" value="1"/>
  <variable index="8293" value="1"/>
  <variable index="8440" value="1"/>
  <variable index="8636" value="1"/>
  <variable index="8729" value="1"/>
  <variable index="8880" value="1"/>
  <variable index="9121" value="1"/>
  <variable index="9306" value="1"/>
  <variable index="9319" value="1"/>
  <variable index="9499" value="1"/>
  <variable index="9666" value="1"/>
  <variable index="9841" value="1"/>
  <variable index="9994" value="1"/>
  <variable index="10134" value="1"/>
  <variable index="10226" value="1"/>
  <variable index="10424" value="1"/>
  <variable index="10559" value="1"/>
  <variable index="10722" value="1"/>
  <variable index="10890" value="1"/>
  <variable index="10994" value="1"/>
  <variable index="11231" value="1"/>
  <variable index="11311" value="1"/>
  <variable index="11551" value="1"/>
  <variable index="11583" value="1"/>
  <variable index="11732" value="1"/>
  <variable index="11994" value="1"/>
  <variable index="12093" value="1"/>
  <variable index="12263" value="1"/>
  <variable index="12412" value="1"/>
  <variable index="12528" value="1"/>
  <variable index="12732" value="1"/>
  <variable index="12839" value="1"/>
  <variable index="13003" value="1"/>
  <variable index="13107" value="1"/>
  <variable index="13288" value="1"/>
  <variable index="13420" value="1"/>
  <variable index="13608" value="1"/>
  <variable index="13759" value="1"/>
  <variable index="13955" value="1"/>
  <variable index="14030" value="1"/>
  <variable index="14141" value="1"/>
  <variable index="14332" value="1"/>
  <variable index="14516" value="1"/>
  <variable index="14648" value="1"/>
  <variable index="14787" value="1"/>
  <variable index="14967" value="1"/>
  <variable index="15145" value="1"/>
  <variable index="15261" value="1"/>
  <variable index="15328" value="1"/>
  <variable index="15510" value="1"/>
  <variable index="15699" value="1"/>
  <variable index="15873" value="1"/>
  <variable index="16036" value="1"/>
  <variable index="16189" value="1"/>
  <variable index="16327" value="1"/>
  <variable index="16504" value="1"/>
  <variable index="16657" value="1"/>
  <variable index="16747" value="1"/>
  <variable index="16943" value="1"/>
  <variable index="17035" value="1"/>
  <variable index="17233" value="1"/>
  <variable index="17384" value="1"/>
  <variable index="17529" value="1"/>
  <variable index="17670" value="1"/>
  <variable index="17865" value="1"/>
  <variable index="17955" value="1"/>
  <variable index="18125" value="1"/>
  <variable index="18290" value="1"/>
  <variable index="18452" value="1"/>
  <variable index="18603" value="1"/>
  <variable index="18652" value="1"/>
  <variable index="18800" value="1"/>
  <variable index="19041" value="1"/>
  <variable index="19180" value="1"/>
  <variable index="19348" value="1"/>
  <variable index="19511" value="1"/>
  <variable index="19601" value="1"/>
  <variable index="19752" value="1"/>
  <variable index="19946" value="1"/>
  <variable index="20100" value="1"/>
  <variable index="20247" value="1"/>
  <variable index="20387" value="1"/>
  <variable index="20526" value="1"/>
  <variable index="20656" value="1"/>
  <variable index="20838" value="1"/>
  <variable index="20974" value="1"/>
  <variable index="21159" value="1"/>
  <variable index="21278" value="1"/>
  <variable index="21460" value="1"/>
  <variable index="21592" value="1"/>
  <variable index="21758" value="1"/>
  <variable index="21868" value="1"/>
  <variable index="22063" value="1"/>
  <variable index="22169" value="1"/>
  <variable index="22362" value="1"/>
  <variable index="22485" value="1"/>
  <variable index="22532" value="544"/>
 </variables>
</CPLEXSolution>
